(set-info :smt-lib-version 2.6)
(set-logic UFLIA)
(set-info :source |
      Tokeneer case study <http://www.adacore.com/home/products/gnatpro/tokeneer/>
  |)
(set-info :category "industrial")
(set-info :status unsat)
(declare-fun field.accessstringt.text () Int)
(declare-fun field.accessstringt.length () Int)
(declare-fun accesspolicyt__base__first () Int)
(declare-fun accesspolicyt__base__last () Int)
(declare-fun accesspolicyt__first () Int)
(declare-fun accesspolicyt__last () Int)
(declare-fun accesspolicyt__size () Int)
(declare-fun accesspolicytexti__base__first () Int)
(declare-fun accesspolicytexti__base__last () Int)
(declare-fun accesspolicytexti__first () Int)
(declare-fun accesspolicytexti__last () Int)
(declare-fun accesspolicytexti__size () Int)
(declare-fun accesspolicytitle () Int)
(declare-fun accessstringlookup () Int)
(declare-fun accesstexti__base__first () Int)
(declare-fun accesstexti__base__last () Int)
(declare-fun accesstexti__first () Int)
(declare-fun accesstexti__last () Int)
(declare-fun accesstexti__size () Int)
(declare-fun allhours () Int)
(declare-fun character__base__first () Int)
(declare-fun character__base__last () Int)
(declare-fun character__first () Int)
(declare-fun character__last () Int)
(declare-fun character__size () Int)
(declare-fun integer__base__first () Int)
(declare-fun integer__base__last () Int)
(declare-fun integer__first () Int)
(declare-fun integer__last () Int)
(declare-fun integer__size () Int)
(declare-fun natural__base__first () Int)
(declare-fun natural__base__last () Int)
(declare-fun natural__first () Int)
(declare-fun natural__last () Int)
(declare-fun natural__size () Int)
(declare-fun null__string () Int)
(declare-fun positive__base__first () Int)
(declare-fun positive__base__last () Int)
(declare-fun positive__first () Int)
(declare-fun positive__last () Int)
(declare-fun positive__size () Int)
(declare-fun workinghours () Int)
(declare-fun loop__1__ap () Int)
(declare-fun init.loop__1__ap () Int)
(declare-fun loop__2__i () Int)
(declare-fun init.loop__2__i () Int)
(declare-fun rawaccesspolicy () Int)
(declare-fun rawaccesspolicy__2 () Int)
(declare-fun init.rawaccesspolicy__2 () Int)
(declare-fun init.rawaccesspolicy () Int)
(declare-fun stop () Int)
(declare-fun stop__1 () Int)
(declare-fun init.stop__1 () Int)
(declare-fun stop__2 () Int)
(declare-fun init.stop__2 () Int)
(declare-fun stop__entry__loop__2 () Int)
(declare-fun init.stop__entry__loop__2 () Int)
(declare-fun init.stop () Int)
(declare-fun thetitle () Int)
(declare-fun thetitle__1 () Int)
(declare-fun init.thetitle__1 () Int)
(declare-fun init.thetitle () Int)
(declare-fun accesspolicyt__pos (Int) Int)
(declare-fun accesspolicyt__pred (Int) Int)
(declare-fun accesspolicyt__succ (Int) Int)
(declare-fun accesspolicyt__val (Int) Int)
(declare-fun bit__and (Int Int) Int)
(declare-fun bit__not (Int Int) Int)
(declare-fun bit__or (Int Int) Int)
(declare-fun bit__xor (Int Int) Int)
(declare-fun character__pos (Int) Int)
(declare-fun character__val (Int) Int)
(declare-fun integer__pred (Int) Int)
(declare-fun integer__succ (Int) Int)
(declare-fun round__ (Int) Int)
(declare-fun i.div (Int Int) Int)
(declare-fun i.mod (Int Int) Int)
(declare-fun i.mult (Int Int) Int)
(declare-fun i.exp (Int Int) Int)
(declare-fun tm.true () Int)
(declare-fun tm.false () Int)
(declare-fun tm.not (Int) Int)
(declare-fun tm.and (Int Int) Int)
(declare-fun tm.or (Int Int) Int)
(declare-fun tm.iff (Int Int) Int)
(declare-fun tm.eq (Int Int) Int)
(declare-fun tm.ne (Int Int) Int)
(declare-fun tm.lt (Int Int) Int)
(declare-fun tm.le (Int Int) Int)
(declare-fun tuple.2 (Int Int) Int)
(declare-fun a.store (Int Int Int) Int)
(declare-fun a.select (Int Int) Int)
(declare-fun a.mk_const_array (Int) Int)
(declare-fun a.default_array () Int)
(declare-fun r.default_record () Int)
(declare-fun matched () Bool)
(declare-fun init.matched () Bool)
(declare-fun accesspolicyt__LE (Int Int) Bool)
(declare-fun accesspolicyt__LT (Int Int) Bool)
(assert (forall ((?i Int)) (=> (and (<= 0 ?i) (< ?i 2)) (= (accesspolicyt__pos ?i) ?i))))
(assert (forall ((?i Int)) (=> (and (<= 0 ?i) (< ?i 2)) (= (accesspolicyt__val ?i) ?i))))
(assert (forall ((?i Int)) (=> (and (<= 0 ?i) (< ?i 1)) (= (accesspolicyt__succ ?i) (+ ?i 1)))))
(assert (forall ((?i Int)) (=> (and (<= 1 ?i) (< ?i 2)) (= (accesspolicyt__pred ?i) (- ?i 1)))))
(assert (= workinghours 0))
(assert (= allhours 1))
(assert (forall ((?I Int)) (=> (and (<= 1 ?I) (<= ?I 13)) (<= character__first (a.select accesspolicytitle ?I)))))
(assert (forall ((?I Int)) (=> (and (<= 1 ?I) (<= ?I 13)) (<= (a.select accesspolicytitle ?I) character__last))))
(assert (forall ((?I Int) (?J Int)) (=> (and (<= workinghours ?I) (<= ?I allhours) (<= 1 ?J) (<= ?J 12)) (<= character__first (a.select (a.select (a.select accessstringlookup ?I) field.accessstringt.text) ?J)))))
(assert (forall ((?I Int) (?J Int)) (=> (and (<= workinghours ?I) (<= ?I allhours) (<= 1 ?J) (<= ?J 12)) (<= (a.select (a.select (a.select accessstringlookup ?I) field.accessstringt.text) ?J) character__last))))
(assert (forall ((?I Int)) (=> (and (<= workinghours ?I) (<= ?I allhours)) (<= accesstexti__first (a.select (a.select accessstringlookup ?I) field.accessstringt.length)))))
(assert (forall ((?I Int)) (=> (and (<= workinghours ?I) (<= ?I allhours)) (<= (a.select (a.select accessstringlookup ?I) field.accessstringt.length) accesstexti__last))))
(assert (<= 0 integer__size))
(assert (= integer__first (- 2147483648)))
(assert (= integer__last 2147483647))
(assert (= integer__base__first (- 2147483648)))
(assert (= integer__base__last 2147483647))
(assert (<= 0 character__size))
(assert (= character__first 0))
(assert (= character__last 255))
(assert (= character__base__first 0))
(assert (= character__base__last 255))
(assert (<= 0 natural__size))
(assert (= natural__first 0))
(assert (= natural__last 2147483647))
(assert (= natural__base__first (- 2147483648)))
(assert (= natural__base__last 2147483647))
(assert (<= 0 positive__size))
(assert (= positive__first 1))
(assert (= positive__last 2147483647))
(assert (= positive__base__first (- 2147483648)))
(assert (= positive__base__last 2147483647))
(assert (<= 0 accesspolicyt__size))
(assert (= accesspolicyt__first workinghours))
(assert (= accesspolicyt__last allhours))
(assert (= accesspolicyt__base__first workinghours))
(assert (= accesspolicyt__base__last allhours))
(assert (<= 0 accesspolicytexti__size))
(assert (= accesspolicytexti__first 1))
(assert (= accesspolicytexti__last 13))
(assert (= accesspolicytexti__base__first (- 2147483648)))
(assert (= accesspolicytexti__base__last 2147483647))
(assert (<= 0 accesstexti__size))
(assert (= accesstexti__first 1))
(assert (= accesstexti__last 12))
(assert (= accesstexti__base__first (- 2147483648)))
(assert (= accesstexti__base__last 2147483647))
(assert (forall ((?X Int) (?Y Int)) (=> (< 0 ?Y) (<= 0 (i.mod ?X ?Y)))))
(assert (forall ((?X Int) (?Y Int)) (=> (< 0 ?Y) (< (i.mod ?X ?Y) ?Y))))
(assert (forall ((?X Int) (?Y Int)) (=> (and (<= 0 ?X) (< 0 ?Y)) (<= (i.mult ?Y (i.div ?X ?Y)) ?X))))
(assert (forall ((?X Int) (?Y Int)) (=> (and (<= 0 ?X) (< 0 ?Y)) (< (- ?X ?Y) (i.mult ?Y (i.div ?X ?Y))))))
(assert (forall ((?X Int) (?Y Int)) (=> (and (<= ?X 0) (< 0 ?Y)) (<= ?X (i.mult ?Y (i.div ?X ?Y))))))
(assert (forall ((?X Int) (?Y Int)) (=> (and (<= ?X 0) (< 0 ?Y)) (< (i.mult ?Y (i.div ?X ?Y)) (+ ?X ?Y)))))
(assert (forall ((?X Int) (?Y Int)) (=> (and (<= 0 ?X) (<= 0 ?Y)) (<= 0 (bit__or ?X ?Y)))))
(assert (forall ((?X Int) (?Y Int)) (=> (and (<= 0 ?X) (<= 0 ?Y)) (<= ?X (bit__or ?X ?Y)))))
(assert (forall ((?X Int) (?Y Int)) (=> (and (<= 0 ?X) (<= 0 ?Y)) (<= ?Y (bit__or ?X ?Y)))))
(assert (forall ((?X Int) (?Y Int)) (=> (and (<= 0 ?X) (<= 0 ?Y)) (<= (bit__or ?X ?Y) (+ ?X ?Y)))))
(assert (distinct field.accessstringt.text field.accessstringt.length))
(assert (distinct tm.true tm.false))
(assert (forall ((?x Int)) (! (= (= (tm.not ?x) tm.true) (not (= ?x tm.true))) :pattern ((tm.not ?x)) )))
(assert (forall ((?x Int) (?y Int)) (! (= (= (tm.and ?x ?y) tm.true) (and (= ?x tm.true) (= ?y tm.true))) :pattern ((tm.and ?x ?y)) )))
(assert (forall ((?x Int) (?y Int)) (! (= (= (tm.or ?x ?y) tm.true) (or (= ?x tm.true) (= ?y tm.true))) :pattern ((tm.or ?x ?y)) )))
(assert (forall ((?x Int) (?y Int)) (! (= (= (tm.iff ?x ?y) tm.true) (= (= ?x tm.true) (= ?y tm.true))) :pattern ((tm.iff ?x ?y)) )))
(assert (forall ((?x Int) (?y Int)) (! (= (= (tm.eq ?x ?y) tm.true) (= ?x ?y)) :pattern ((tm.eq ?x ?y)) )))
(assert (forall ((?x Int) (?y Int)) (! (= (= (tm.ne ?x ?y) tm.true) (not (= ?x ?y))) :pattern ((tm.ne ?x ?y)) )))
(assert (forall ((?x Int) (?y Int)) (! (= (= (tm.lt ?x ?y) tm.true) (< ?x ?y)) :pattern ((tm.lt ?x ?y)) )))
(assert (forall ((?x Int) (?y Int)) (! (= (= (tm.le ?x ?y) tm.true) (<= ?x ?y)) :pattern ((tm.le ?x ?y)) )))
(assert (forall ((?a Int) (?i Int) (?v Int)) (! (= (a.select (a.store ?a ?i ?v) ?i) ?v) :pattern ((a.select (a.store ?a ?i ?v) ?i)) )))
(assert (forall ((?a Int) (?i Int) (?v Int) (?j Int)) (! (or (= ?i ?j) (= (a.select (a.store ?a ?i ?v) ?j) (a.select ?a ?j))) :pattern ((a.select (a.store ?a ?i ?v) ?j)) )))
(assert (forall ((?i Int) (?v Int)) (! (= (a.select (a.mk_const_array ?v) ?i) ?v) :pattern ((a.select (a.mk_const_array ?v) ?i)) )))
(assert (<= accesspolicyt__first loop__1__ap))
(assert (<= loop__1__ap accesspolicyt__last))
(assert (<= accesstexti__first stop))
(assert (<= stop accesstexti__last))
(assert (<= accesspolicyt__first loop__1__ap))
(assert (<= loop__1__ap accesspolicyt__last))
(assert (<= loop__1__ap accesspolicyt__last))
(assert (<= natural__first stop))
(assert (<= stop natural__last))
(assert (<= integer__first stop))
(assert (<= stop integer__last))
(assert (<= integer__first 1))
(assert (<= 1 integer__last))
(assert (=> (<= 1 stop) (and (<= accesstexti__first stop) (<= stop accesstexti__last))))
(assert (=> (<= 1 stop) (and (<= accesstexti__first 1) (<= 1 accesstexti__last))))
(assert (<= natural__first stop))
(assert (<= stop natural__last))
(assert (not (<= 1 stop)))
(assert true)
(assert (not true))
(assert (not (= loop__1__ap accesspolicyt__last)))
(assert (let ((?v_0 (accesspolicyt__succ loop__1__ap))) (let ((?v_1 (<= accesspolicyt__first ?v_0)) (?v_2 (<= ?v_0 accesspolicyt__last))) (not (and ?v_1 ?v_2 ?v_1 ?v_2 ?v_2)))))
(check-sat)
(exit)
